(declare-const a Real)
(declare-const b Real)
(declare-const c Real)
(assert (= (* a b c) 1))
(assert (> a 0))
(assert (> b 0))
(assert (> c 0))
(assert (not (<= (+ (/ 1 3) (* (pow (* a b c) (/ 7 3)) (+ (* -1 (pow (+ (* (/ 1 2) (pow (+ a (* 2 b)) 2)) (* (/ 1 2) (pow c 10) (pow (+ a (* 2 b)) 2))) -1)) (* -1 (pow (+ (* (/ 1 2) (pow (+ b (* 2 c)) 2)) (* (/ 1 2) (pow a 10) (pow (+ b (* 2 c)) 2))) -1)) (* -1 (pow (+ (* (/ 1 2) (pow (+ c (* 2 a)) 2)) (* (/ 1 2) (pow b 10) (pow (+ c (* 2 a)) 2))) -1))))) 0)))
(check-sat)
(get-model)
(exit)